
Log started (V11.0.0) Sun Apr 13 14:03:37 2008

Tried aggregator 1 time.
Reduced MIP has 240 rows, 8001 columns, and 16040 nonzeros.
Presolve time =    0.06 sec.
Clique table members: 200.
MIP emphasis: balance optimality and feasibility.
MIP search method: dynamic search.
Parallel mode: none, using 1 thread.
Root relaxation solution time =    0.20 sec.

        Nodes                                         Cuts/
   Node  Left     Objective  IInf  Best Integer     Best Node    ItCnt     Gap

*     0+    0                        10550.0000       15.0474      831   99.86%
*     0+    0                           23.0000       15.0474      831   34.58%
      0     0       16.0000    55       23.0000      Fract: 3      840   30.43%
*     0+    0                           22.0000       16.0000      840   27.27%
      0     0       16.0000    58       22.0000       Cuts: 2      846   27.27%
      0     0       16.0000    58       22.0000       Cuts: 6      847   27.27%
*     0+    0                           21.0000       16.0000      847   23.81%
*     0+    0                           20.0000       16.0000      847   20.00%
*     0+    0                           19.0000       16.0000      847   15.79%

Repeating presolve.
Tried aggregator 1 time.
MIP Presolve eliminated 0 rows and 6500 columns.
Reduced MIP has 240 rows, 1501 columns, and 3040 nonzeros.
Tried aggregator 1 time.
Represolve time =    0.08 sec.
Clique table members: 581.
MIP emphasis: balance optimality and feasibility.
MIP search method: dynamic search.
Parallel mode: none, using 1 thread.
Root relaxation solution time =    0.03 sec.

        Nodes                                         Cuts/
   Node  Left     Objective  IInf  Best Integer     Best Node    ItCnt     Gap

      0     0       16.0000    70       19.0000       16.0000      373   15.79%
      0     2       16.0000    70       19.0000       16.0000      373   15.79%
    100   101       17.0000    45       19.0000       16.0000     2534   15.79%
    200   192       18.0000    39       19.0000       16.0000     4916   15.79%
    300   290       18.0000    48       19.0000       16.0000     7616   15.79%
    400   377       17.0000    38       19.0000       16.0000    11055   15.79%
    500   459       17.0000   106       19.0000       16.0000    16244   15.79%
*   509+  314                           18.0000       16.0000    16297   11.11%
    600   330       17.0000    46       18.0000       16.0000    19141   11.11%
    700   331    infeasible             18.0000       16.0000    23713   11.11%
    800   331       17.0000    50       18.0000       16.0000    28928   11.11%
    900   343       17.0000    59       18.0000       16.0000    32459   11.11%
   1000   433       17.0000    62       18.0000       16.0000    35846   11.11%
Elapsed time =  13.13 sec. (tree size =  2.28 MB, solutions = 7)
   1100   520       17.0000    75       18.0000       16.0000    40150   11.11%
   1200   604       17.0000    41       18.0000       16.0000    45361   11.11%
*  1279+  158                           17.0000       16.0000    50975    5.88%
   1300   146        cutoff             17.0000       16.0000    61452    5.88%
   1400   174       16.0000   154       17.0000       16.0000    91692    5.88%
   1500   132        cutoff             17.0000       16.0000   164029    5.88%
   1600    84       16.0000   176       17.0000       16.0000   252469    5.88%
   1700    92        cutoff             17.0000       16.0000   296338    5.88%
   1800    56       16.0013   179       17.0000       16.0000   357984    5.88%

Clique cuts applied:  4
Cover cuts applied:  404
Implied bound cuts applied:  3
Mixed integer rounding cuts applied:  103
Zero-half cuts applied:  11
Gomory fractional cuts applied:  28

Solution pool: 8 solutions saved.

MIP - Integer optimal solution:  Objective = 1.7000000000e+001
Solution time =  101.66 sec.  Iterations = 415989  Nodes = 1879


Incumbent solution
Variable Name           Solution Value
Cmax                         17.000000
X_1_3                         1.000000
X_2_29                        1.000000
X_3_10                        1.000000
X_4_35                        1.000000
X_5_37                        1.000000
X_6_38                        1.000000
X_7_5                         1.000000
X_8_34                        1.000000
X_9_19                        1.000000
X_10_6                        1.000000
X_11_30                       1.000000
X_12_10                       1.000000
X_13_6                        1.000000
X_14_13                       1.000000
X_15_39                       1.000000
X_16_26                       1.000000
X_17_11                       1.000000
X_18_12                       1.000000
X_19_25                       1.000000
X_20_6                        1.000000
X_21_39                       1.000000
X_22_38                       1.000000
X_23_11                       1.000000
X_24_9                        1.000000
X_25_30                       1.000000
X_26_6                        1.000000
X_27_15                       1.000000
X_28_19                       1.000000
X_29_38                       1.000000
X_30_4                        1.000000
X_31_31                       1.000000
X_32_20                       1.000000
X_33_9                        1.000000
X_34_7                        1.000000
X_35_40                       1.000000
X_36_14                       1.000000
X_37_33                       1.000000
X_38_8                        1.000000
X_39_7                        1.000000
X_40_40                       1.000000
X_41_11                       1.000000
X_42_29                       1.000000
X_43_13                       1.000000
X_44_24                       1.000000
X_45_7                        1.000000
X_46_1                        1.000000
X_47_23                       1.000000
X_48_15                       1.000000
X_49_21                       1.000000
X_50_13                       1.000000
X_51_2                        1.000000
X_52_27                       1.000000
X_53_21                       1.000000
X_54_12                       1.000000
X_55_8                        1.000000
X_56_3                        1.000000
X_57_38                       1.000000
X_58_39                       1.000000
X_59_26                       1.000000
X_60_35                       1.000000
X_61_4                        1.000000
X_62_23                       1.000000
X_63_16                       1.000000
X_64_35                       1.000000
X_65_35                       1.000000
X_66_9                        1.000000
X_67_30                       1.000000
X_68_3                        1.000000
X_69_25                       1.000000
X_70_22                       1.000000
X_71_35                       1.000000
X_72_11                       1.000000
X_73_37                       1.000000
X_74_2                        1.000000
X_75_9                        1.000000
X_76_5                        1.000000
X_77_27                       1.000000
X_78_20                       1.000000
X_79_17                       1.000000
X_80_27                       1.000000
X_81_33                       1.000000
X_82_8                        1.000000
X_83_31                       1.000000
X_84_31                       1.000000
X_85_15                       1.000000
X_86_15                       1.000000
X_87_24                       1.000000
X_88_40                       1.000000
X_89_31                       1.000000
X_90_35                       1.000000
X_91_33                       1.000000
X_92_38                       1.000000
X_93_26                       1.000000
X_94_20                       1.000000
X_95_7                        1.000000
X_96_40                       1.000000
X_97_36                       1.000000
X_98_32                       1.000000
X_99_37                       1.000000
X_100_18                      1.000000
X_101_24                      1.000000
X_102_6                       1.000000
X_103_39                      1.000000
X_104_40                      1.000000
X_105_25                      1.000000
X_106_35                      1.000000
X_107_19                      1.000000
X_108_17                      1.000000
X_109_20                      1.000000
X_110_37                      1.000000
X_111_11                      1.000000
X_112_18                      1.000000
X_113_4                       1.000000
X_114_36                      1.000000
X_115_3                       1.000000
X_116_27                      1.000000
X_117_18                      1.000000
X_118_27                      1.000000
X_119_7                       1.000000
X_120_22                      1.000000
X_121_17                      1.000000
X_122_18                      1.000000
X_123_21                      1.000000
X_124_29                      1.000000
X_125_37                      1.000000
X_126_6                       1.000000
X_127_11                      1.000000
X_128_2                       1.000000
X_129_26                      1.000000
X_130_36                      1.000000
X_131_37                      1.000000
X_132_40                      1.000000
X_133_17                      1.000000
X_134_12                      1.000000
X_135_5                       1.000000
X_136_1                       1.000000
X_137_29                      1.000000
X_138_36                      1.000000
X_139_16                      1.000000
X_140_30                      1.000000
X_141_11                      1.000000
X_142_39                      1.000000
X_143_20                      1.000000
X_144_23                      1.000000
X_145_8                       1.000000
X_146_20                      1.000000
X_147_13                      1.000000
X_148_9                       1.000000
X_149_22                      1.000000
X_150_16                      1.000000
X_151_24                      1.000000
X_152_26                      1.000000
X_153_39                      1.000000
X_154_26                      1.000000
X_155_38                      1.000000
X_156_25                      1.000000
X_157_10                      1.000000
X_158_32                      1.000000
X_159_24                      1.000000
X_160_7                       1.000000
X_161_33                      1.000000
X_162_1                       1.000000
X_163_19                      1.000000
X_164_9                       1.000000
X_165_28                      1.000000
X_166_36                      1.000000
X_167_30                      1.000000
X_168_2                       1.000000
X_169_25                      1.000000
X_170_3                       1.000000
X_171_28                      1.000000
X_172_22                      1.000000
X_173_34                      1.000000
X_174_12                      1.000000
X_175_1                       1.000000
X_176_32                      1.000000
X_177_22                      1.000000
X_178_21                      1.000000
X_179_14                      1.000000
X_180_32                      1.000000
X_181_17                      1.000000
X_182_23                      1.000000
X_183_21                      1.000000
X_184_28                      1.000000
X_185_14                      1.000000
X_186_27                      1.000000
X_187_18                      1.000000
X_188_33                      1.000000
X_189_1                       1.000000
X_190_31                      1.000000
X_191_4                       1.000000
X_192_19                      1.000000
X_193_28                      1.000000
X_194_25                      1.000000
X_195_12                      1.000000
X_196_24                      1.000000
X_197_5                       1.000000
X_198_29                      1.000000
X_199_39                      1.000000
X_200_22                      1.000000
All other variables in the range 1-8001 are 0.
